objective value:                              9647125
t_x208                                              1 	(obj:2625)
t_x244                                              1 	(obj:2125)
t_x279                                              1 	(obj:29375)
t_x290                                              1 	(obj:6875)
t_x302                                              1 	(obj:7745125)
t_x308                                              1 	(obj:3375)
t_x314                                              1 	(obj:29875)
t_x322                                              1 	(obj:1375)
t_x350                                              1 	(obj:1750)
t_x450                                              1 	(obj:119125)
t_x461                                              1 	(obj:105250)
t_x483                                              1 	(obj:1375)
t_x548                                              1 	(obj:29875)
t_x556                                              1 	(obj:4000)
t_x565                                              1 	(obj:32000)
t_x703                                              1 	(obj:29250)
t_x781                                              1 	(obj:112125)
t_x790                                              1 	(obj:116375)
t_x836                                              1 	(obj:3000)
t_x852                                              1 	(obj:2250)
t_x871                                              1 	(obj:1750)
t_x925                                              1 	(obj:1625)
t_x945                                              1 	(obj:875)
t_x951                                              1 	(obj:3375)
t_x1271                                             1 	(obj:1750)
t_x1301                                             1 	(obj:29750)
t_x1339                                             1 	(obj:30250)
t_x1376                                             1 	(obj:109875)
t_x1379                                             1 	(obj:29375)
t_x1479                                             1 	(obj:3750)
t_x1544                                             1 	(obj:114500)
t_x1616                                             1 	(obj:123375)
t_x1633                                             1 	(obj:625)
t_x1652                                             1 	(obj:3500)
t_x1694                                             1 	(obj:109500)
t_x1741                                             1 	(obj:25625)
t_x1796                                             1 	(obj:31000)
t_x1818                                             1 	(obj:7625)
t_x2029                                             1 	(obj:29750)
t_x2042                                             1 	(obj:1875)
t_x2074                                             1 	(obj:3750)
t_x2109                                             1 	(obj:3500)
t_x2192                                             1 	(obj:13375)
t_x2427                                             1 	(obj:1250)
t_x2441                                             1 	(obj:2375)
t_x2451                                             1 	(obj:29625)
t_x2485                                             1 	(obj:103250)
t_x2579                                             1 	(obj:58500)
t_x2590                                             1 	(obj:1500)
t_x2618                                             1 	(obj:2250)
t_x2794                                             1 	(obj:3625)
t_x2838                                             1 	(obj:106125)
t_x2928                                             1 	(obj:106875)
t_x2954                                             1 	(obj:750)
t_x2963                                             1 	(obj:55125)
t_x3011                                             1 	(obj:750)
t_x3047                                             1 	(obj:750)
t_x3208                                             1 	(obj:3500)
t_x3232                                             1 	(obj:113375)
